\ENCODING=ISO-8859-1
\Problem name: ilog.cplex

Maximize
 obj: 708 x(0)#0 + 759 x(1)#1 + 821 x(2)#2 + 523 x(3)#3 + 788 x(4)#4
      + 833 x(5)#5 + 740 x(6)#6 + 637 x(7)#7 + 635 x(8)#8 + 627 x(9)#9
      + 784 x(10)#10 + 659 x(11)#11 + 365 x(12)#12 + 798 x(13)#13
      + 777 x(14)#14 + 741 x(15)#15 + 661 x(16)#16 + 1016 x(17)#17
      + 509 x(18)#18 + 623 x(19)#19 + 687 x(20)#20 + 702 x(21)#21
      + 811 x(22)#22 + 888 x(23)#23 + 841 x(24)#24 + 789 x(25)#25
      + 697 x(26)#26 + 716 x(27)#27 + 778 x(28)#28 + 495 x(29)#29
      + 832 x(30)#30 + 812 x(31)#31 + 995 x(32)#32 + 759 x(33)#33
      + 1104 x(34)#34 + 1014 x(35)#35 + 952 x(36)#36 + 674 x(37)#37
      + 960 x(38)#38 + 986 x(39)#39 + 942 x(40)#40 + 846 x(41)#41
      + 889 x(42)#42 + 719 x(43)#43 + 588 x(44)#44 + 881 x(45)#45
      + 573 x(46)#46 + 805 x(47)#47 + 1076 x(48)#48 + 834 x(49)#49
      + 952 x(50)#50 + 755 x(51)#51 + 890 x(52)#52 + 917 x(53)#53
      + 799 x(54)#54 + 520 x(55)#55 + 767 x(56)#56 + 418 x(57)#57
      + 684 x(58)#58 + 774 x(59)#59 + 770 x(60)#60 + 926 x(61)#61
      + 884 x(62)#62 + 971 x(63)#63 + 866 x(64)#64 + 709 x(65)#65
      + 885 x(66)#66 + 1061 x(67)#67 + 464 x(68)#68 + 694 x(69)#69
      + 966 x(70)#70 + 997 x(71)#71 + 812 x(72)#72 + 924 x(73)#73
      + 878 x(74)#74 + 569 x(75)#75 + 948 x(76)#76 + 932 x(77)#77
      + 812 x(78)#78 + 722 x(79)#79 + 741 x(80)#80 + 737 x(81)#81
      + 801 x(82)#82 + 1105 x(83)#83 + 720 x(84)#84 + 867 x(85)#85
      + 527 x(86)#86 + 973 x(87)#87 + 623 x(88)#88 + 817 x(89)#89
      + 427 x(90)#90 + 457 x(91)#91 + 532 x(92)#92 + 867 x(93)#93
      + 564 x(94)#94 + 659 x(95)#95 + 645 x(96)#96 + 739 x(97)#97
      + 965 x(98)#98 + 1026 x(99)#99 + 969 x(100)#100 + 737 x(101)#101
      + 385 x(102)#102 + 450 x(103)#103 + 725 x(104)#104 + 688 x(105)#105
      + 942 x(106)#106 + 716 x(107)#107 + 1221 x(108)#108 + 711 x(109)#109
      + 622 x(110)#110 + 874 x(111)#111 + 491 x(112)#112 + 523 x(113)#113
      + 773 x(114)#114 + 525 x(115)#115 + 616 x(116)#116 + 669 x(117)#117
      + 695 x(118)#118 + 811 x(119)#119 + 311 x(120)#120 + 806 x(121)#121
      + 1066 x(122)#122 + 780 x(123)#123 + 898 x(124)#124 + 885 x(125)#125
      + 860 x(126)#126 + 557 x(127)#127 + 799 x(128)#128 + 406 x(129)#129
      + 603 x(130)#130 + 585 x(131)#131 + 855 x(132)#132 + 674 x(133)#133
      + 298 x(134)#134 + 553 x(135)#135 + 542 x(136)#136 + 552 x(137)#137
      + 780 x(138)#138 + 882 x(139)#139 + 429 x(140)#140 + 584 x(141)#141
      + 921 x(142)#142 + 549 x(143)#143 + 671 x(144)#144 + 470 x(145)#145
      + 829 x(146)#146 + 1113 x(147)#147 + 906 x(148)#148 + 979 x(149)#149
      + 810 x(150)#150 + 779 x(151)#151 + 791 x(152)#152 + 853 x(153)#153
      + 932 x(154)#154 + 743 x(155)#155 + 918 x(156)#156 + 883 x(157)#157
      + 1067 x(158)#158 + 694 x(159)#159 + 709 x(160)#160 + 634 x(161)#161
      + 550 x(162)#162 + 424 x(163)#163 + 661 x(164)#164 + 969 x(165)#165
      + 658 x(166)#166 + 1053 x(167)#167 + 924 x(168)#168 + 606 x(169)#169
      + 880 x(170)#170 + 912 x(171)#171 + 413 x(172)#172 + 629 x(173)#173
      + 1008 x(174)#174 + 779 x(175)#175 + 940 x(176)#176 + 1275 x(177)#177
      + 746 x(178)#178 + 632 x(179)#179 + 1150 x(180)#180 + 895 x(181)#181
      + 741 x(182)#182 + 686 x(183)#183 + 501 x(184)#184 + 920 x(185)#185
      + 1026 x(186)#186 + 949 x(187)#187 + 990 x(188)#188 + 803 x(189)#189
      + 820 x(190)#190 + 415 x(191)#191 + 473 x(192)#192 + 701 x(193)#193
      + 663 x(194)#194 + 824 x(195)#195 + 733 x(196)#196 + 812 x(197)#197
      + 789 x(198)#198 + 1001 x(199)#199 + 714 x(200)#200 + 387 x(201)#201
      + 776 x(202)#202 + 957 x(203)#203 + 780 x(204)#204 + 692 x(205)#205
      + 835 x(206)#206 + 1107 x(207)#207 + 660 x(208)#208 + 1055 x(209)#209
      + 604 x(210)#210 + 1054 x(211)#211 + 1207 x(212)#212 + 836 x(213)#213
      + 548 x(214)#214 + 603 x(215)#215 + 850 x(216)#216 + 795 x(217)#217
      + 776 x(218)#218 + 709 x(219)#219 + 503 x(220)#220 + 809 x(221)#221
      + 373 x(222)#222 + 866 x(223)#223 + 802 x(224)#224 + 375 x(225)#225
      + 773 x(226)#226 + 825 x(227)#227 + 497 x(228)#228 + 1124 x(229)#229
      + 698 x(230)#230 + 545 x(231)#231 + 998 x(232)#232 + 920 x(233)#233
      + 591 x(234)#234 + 668 x(235)#235 + 764 x(236)#236 + 775 x(237)#237
      + 698 x(238)#238 + 1071 x(239)#239 + 644 x(240)#240 + 766 x(241)#241
      + 781 x(242)#242 + 793 x(243)#243 + 714 x(244)#244 + 868 x(245)#245
      + 657 x(246)#246 + 948 x(247)#247 + 451 x(248)#248 + 566 x(249)#249
Subject To
 c1: 655 x(0)#0 + 765 x(1)#1 + 267 x(2)#2 + 869 x(3)#3 + 161 x(4)#4
     + 830 x(5)#5 + 517 x(6)#6 + 796 x(7)#7 + 267 x(8)#8 + 715 x(9)#9
     + 888 x(10)#10 + 478 x(11)#11 + 263 x(12)#12 + 946 x(13)#13 + 522 x(14)#14
     + 931 x(15)#15 + 923 x(16)#16 + 852 x(17)#17 + 329 x(18)#18 + 26 x(19)#19
     + 416 x(20)#20 + 541 x(21)#21 + 804 x(22)#22 + 693 x(23)#23 + 472 x(24)#24
     + 844 x(25)#25 + 162 x(26)#26 + 239 x(27)#27 + 426 x(28)#28 + 926 x(29)#29
     + 422 x(30)#30 + 175 x(31)#31 + 501 x(32)#32 + 563 x(33)#33 + 624 x(34)#34
     + 777 x(35)#35 + 502 x(36)#36 + 893 x(37)#37 + 770 x(38)#38 + 608 x(39)#39
     + 434 x(40)#40 + 564 x(41)#41 + 903 x(42)#42 + 621 x(43)#43 + 969 x(44)#44
     + 675 x(45)#45 + 867 x(46)#46 + 22 x(47)#47 + 232 x(48)#48 + 544 x(49)#49
     + 906 x(50)#50 + 72 x(51)#51 + 181 x(52)#52 + 823 x(53)#53 + 482 x(54)#54
     + 34 x(55)#55 + 377 x(56)#56 + 395 x(57)#57 + 56 x(58)#58 + 31 x(59)#59
     + 112 x(60)#60 + 49 x(61)#61 + 860 x(62)#62 + 689 x(63)#63 + 143 x(64)#64
     + 628 x(65)#65 + 467 x(66)#66 + 718 x(67)#67 + 929 x(68)#68
     + 1000 x(69)#69 + 648 x(70)#70 + 148 x(71)#71 + 546 x(72)#72
     + 383 x(73)#73 + 482 x(74)#74 + 459 x(75)#75 + 8 x(76)#76 + 53 x(77)#77
     + 43 x(78)#78 + 175 x(79)#79 + 268 x(80)#80 + 124 x(81)#81 + 190 x(82)#82
     + 210 x(83)#83 + 77 x(84)#84 + 127 x(85)#85 + 222 x(86)#86 + 403 x(87)#87
     + 647 x(88)#88 + 848 x(89)#89 + 6 x(90)#90 + 457 x(91)#91 + 501 x(92)#92
     + 447 x(93)#93 + 61 x(94)#94 + 94 x(95)#95 + 636 x(96)#96 + 265 x(97)#97
     + 533 x(98)#98 + 707 x(99)#99 + 243 x(100)#100 + 612 x(101)#101
     + 840 x(102)#102 + 280 x(103)#103 + 675 x(104)#104 + 980 x(105)#105
     + 177 x(106)#106 + 272 x(107)#107 + 946 x(108)#108 + 951 x(109)#109
     + 307 x(110)#110 + 421 x(111)#111 + 624 x(112)#112 + 176 x(113)#113
     + 588 x(114)#114 + 329 x(115)#115 + 246 x(116)#116 + 6 x(117)#117
     + 728 x(118)#118 + 576 x(119)#119 + 202 x(120)#120 + 978 x(121)#121
     + 85 x(122)#122 + 518 x(123)#123 + 659 x(124)#124 + 539 x(125)#125
     + 449 x(126)#126 + 20 x(127)#127 + 876 x(128)#128 + 177 x(129)#129
     + 902 x(130)#130 + 970 x(131)#131 + 930 x(132)#132 + 675 x(133)#133
     + 65 x(134)#134 + 691 x(135)#135 + 661 x(136)#136 + 793 x(137)#137
     + 886 x(138)#138 + 316 x(139)#139 + 273 x(140)#140 + 257 x(141)#141
     + 483 x(142)#142 + 922 x(143)#143 + 194 x(144)#144 + 755 x(145)#145
     + 158 x(146)#146 + 293 x(147)#147 + 754 x(148)#148 + 867 x(149)#149
     + 431 x(150)#150 + 921 x(151)#151 + 106 x(152)#152 + 193 x(153)#153
     + 549 x(154)#154 + 727 x(155)#155 + 33 x(156)#156 + 218 x(157)#157
     + 946 x(158)#158 + 389 x(159)#159 + 527 x(160)#160 + 701 x(161)#161
     + 70 x(162)#162 + 242 x(163)#163 + 704 x(164)#164 + 221 x(165)#165
     + 236 x(166)#166 + 967 x(167)#167 + 721 x(168)#168 + 969 x(169)#169
     + 687 x(170)#170 + 358 x(171)#171 + 236 x(172)#172 + 412 x(173)#173
     + 818 x(174)#174 + 660 x(175)#175 + 252 x(176)#176 + 549 x(177)#177
     + 66 x(178)#178 + 175 x(179)#179 + 656 x(180)#180 + 367 x(181)#181
     + 564 x(182)#182 + 702 x(183)#183 + 423 x(184)#184 + 838 x(185)#185
     + 765 x(186)#186 + 802 x(187)#187 + 599 x(188)#188 + 702 x(189)#189
     + 966 x(190)#190 + 15 x(191)#191 + 397 x(192)#192 + 644 x(193)#193
     + 412 x(194)#194 + 466 x(195)#195 + 428 x(196)#196 + 65 x(197)#197
     + 833 x(198)#198 + 747 x(199)#199 + 838 x(200)#200 + 49 x(201)#201
     + 4 x(202)#202 + 840 x(203)#203 + 467 x(204)#204 + 639 x(205)#205
     + 665 x(206)#206 + 981 x(207)#207 + 69 x(208)#208 + 415 x(209)#209
     + 664 x(210)#210 + 253 x(211)#211 + 695 x(212)#212 + 945 x(213)#213
     + 551 x(214)#214 + 6 x(215)#215 + 593 x(216)#216 + 889 x(217)#217
     + 750 x(218)#218 + 208 x(219)#219 + 181 x(220)#220 + 991 x(221)#221
     + 190 x(222)#222 + 772 x(223)#223 + 831 x(224)#224 + 446 x(225)#225
     + 953 x(226)#226 + 796 x(227)#227 + 422 x(228)#228 + 807 x(229)#229
     + 831 x(230)#230 + 334 x(231)#231 + 372 x(232)#232 + 979 x(233)#233
     + 911 x(234)#234 + 944 x(235)#235 + 55 x(236)#236 + 715 x(237)#237
     + 568 x(238)#238 + 587 x(239)#239 + 61 x(240)#240 + 144 x(241)#241
     + 346 x(242)#242 + 88 x(243)#243 + 770 x(244)#244 + 361 x(245)#245
     + 151 x(246)#246 + 515 x(247)#247 + 361 x(248)#248 + 256 x(249)#249
     <= 31492
 c2: 864 x(0)#0 + 385 x(1)#1 + 132 x(2)#2 + 100 x(3)#3 + 329 x(4)#4
     + 658 x(5)#5 + 475 x(6)#6 + 716 x(7)#7 + 61 x(8)#8 + 359 x(9)#9
     + 230 x(10)#10 + 832 x(11)#11 + 704 x(12)#12 + 322 x(13)#13 + 683 x(14)#14
     + 871 x(15)#15 + 358 x(16)#16 + 368 x(17)#17 + 542 x(18)#18 + 663 x(19)#19
     + 102 x(20)#20 + 775 x(21)#21 + 644 x(22)#22 + 929 x(23)#23 + 990 x(24)#24
     + 680 x(25)#25 + 534 x(26)#26 + 393 x(27)#27 + 85 x(28)#28 + 267 x(29)#29
     + 542 x(30)#30 + 790 x(31)#31 + 651 x(32)#32 + 213 x(33)#33 + 722 x(34)#34
     + 597 x(35)#35 + 825 x(36)#36 + 34 x(37)#37 + 819 x(38)#38 + 461 x(39)#39
     + 519 x(40)#40 + 562 x(41)#41 + 549 x(42)#42 + 307 x(43)#43 + 418 x(44)#44
     + 429 x(45)#45 + 44 x(46)#46 + 772 x(47)#47 + 178 x(48)#48 + 246 x(49)#49
     + 930 x(50)#50 + 596 x(51)#51 + 340 x(52)#52 + 202 x(53)#53 + 379 x(54)#54
     + 361 x(55)#55 + 284 x(56)#56 + 237 x(57)#57 + 29 x(58)#58 + 598 x(59)#59
     + 337 x(60)#60 + 664 x(61)#61 + 488 x(62)#62 + 968 x(63)#63 + 998 x(64)#64
     + 84 x(65)#65 + 377 x(66)#66 + 603 x(67)#67 + 148 x(68)#68 + 852 x(69)#69
     + 422 x(70)#70 + 626 x(71)#71 + 224 x(72)#72 + 486 x(73)#73 + 833 x(74)#74
     + 185 x(75)#75 + 741 x(76)#76 + 737 x(77)#77 + 189 x(78)#78 + 362 x(79)#79
     + 618 x(80)#80 + 460 x(81)#81 + 906 x(82)#82 + 409 x(83)#83 + 386 x(84)#84
     + 114 x(85)#85 + 56 x(86)#86 + 968 x(87)#87 + 334 x(88)#88 + 14 x(89)#89
     + 285 x(90)#90 + 90 x(91)#91 + 386 x(92)#92 + 696 x(93)#93 + 927 x(94)#94
     + 440 x(95)#95 + 210 x(96)#96 + 133 x(97)#97 + 280 x(98)#98 + 789 x(99)#99
     + 730 x(100)#100 + 425 x(101)#101 + 148 x(102)#102 + 322 x(103)#103
     + 488 x(104)#104 + 188 x(105)#105 + 156 x(106)#106 + 505 x(107)#107
     + 402 x(108)#108 + 148 x(109)#109 + 536 x(110)#110 + 258 x(111)#111
     + 503 x(112)#112 + 328 x(113)#113 + 78 x(114)#114 + 478 x(115)#115
     + 71 x(116)#116 + 352 x(117)#117 + 381 x(118)#118 + 679 x(119)#119
     + 122 x(120)#120 + 405 x(121)#121 + 488 x(122)#122 + 532 x(123)#123
     + 513 x(124)#124 + 484 x(125)#125 + 123 x(126)#126 + 254 x(127)#127
     + 934 x(128)#128 + 402 x(129)#129 + 535 x(130)#130 + 308 x(131)#131
     + 340 x(132)#132 + 887 x(133)#133 + 470 x(134)#134 + 294 x(135)#135
     + 430 x(136)#136 + 2 x(137)#137 + 349 x(138)#138 + 787 x(139)#139
     + 161 x(140)#140 + 696 x(141)#141 + 964 x(142)#142 + 243 x(143)#143
     + 73 x(144)#144 + 219 x(145)#145 + 511 x(146)#146 + 804 x(147)#147
     + 260 x(148)#148 + 652 x(149)#149 + 289 x(150)#150 + 590 x(151)#151
     + 513 x(152)#152 + 617 x(153)#153 + 813 x(154)#154 + 837 x(155)#155
     + 958 x(156)#156 + 205 x(157)#157 + 413 x(158)#158 + 929 x(159)#159
     + 235 x(160)#160 + 514 x(161)#161 + 167 x(162)#162 + 399 x(163)#163
     + 170 x(164)#164 + 503 x(165)#165 + 626 x(166)#166 + 989 x(167)#167
     + 660 x(168)#168 + 169 x(169)#169 + 628 x(170)#170 + 104 x(171)#171
     + 42 x(172)#172 + 771 x(173)#173 + 265 x(174)#174 + 502 x(175)#175
     + 448 x(176)#176 + 637 x(177)#177 + 259 x(178)#178 + 99 x(179)#179
     + 545 x(180)#180 + 38 x(181)#181 + 628 x(182)#182 + 196 x(183)#183
     + 482 x(184)#184 + 994 x(185)#185 + 357 x(186)#186 + 4 x(187)#187
     + 760 x(188)#188 + 929 x(189)#189 + 972 x(190)#190 + 81 x(191)#191
     + 289 x(192)#192 + 461 x(193)#193 + 422 x(194)#194 + 854 x(195)#195
     + 980 x(196)#196 + 129 x(197)#197 + 698 x(198)#198 + 488 x(199)#199
     + 823 x(200)#200 + 209 x(201)#201 + 738 x(202)#202 + 848 x(203)#203
     + 564 x(204)#204 + 590 x(205)#205 + 1000 x(206)#206 + 386 x(207)#207
     + 627 x(208)#208 + 902 x(209)#209 + 764 x(210)#210 + 929 x(211)#211
     + 550 x(212)#212 + 430 x(213)#213 + 479 x(214)#214 + 697 x(215)#215
     + 654 x(216)#216 + 927 x(217)#217 + 902 x(218)#218 + 282 x(219)#219
     + 689 x(220)#220 + 785 x(221)#221 + 512 x(222)#222 + 799 x(223)#223
     + 688 x(224)#224 + 514 x(225)#225 + 6 x(226)#226 + 946 x(227)#227
     + 25 x(228)#228 + 981 x(229)#229 + 373 x(230)#230 + 806 x(231)#231
     + 522 x(232)#232 + 618 x(233)#233 + 269 x(234)#234 + 425 x(235)#235
     + 512 x(236)#236 + 729 x(237)#237 + 799 x(238)#238 + 648 x(239)#239
     + 491 x(240)#240 + 6 x(241)#241 + 921 x(242)#242 + 113 x(243)#243
     + 930 x(244)#244 + 108 x(245)#245 + 64 x(246)#246 + 926 x(247)#247
     + 69 x(248)#248 + 18 x(249)#249 <= 30295
 c3: 458 x(0)#0 + 238 x(1)#1 + 775 x(2)#2 + 29 x(3)#3 + 353 x(4)#4 + 267 x(5)#5
     + 831 x(6)#6 + 691 x(7)#7 + 774 x(8)#8 + 35 x(9)#9 + 58 x(10)#10
     + 866 x(11)#11 + 107 x(12)#12 + 359 x(13)#13 + 931 x(14)#14 + 564 x(15)#15
     + 343 x(16)#16 + 262 x(17)#17 + 166 x(18)#18 + 356 x(19)#19 + 136 x(20)#20
     + 975 x(21)#21 + 567 x(22)#22 + 917 x(23)#23 + 618 x(24)#24 + 16 x(25)#25
     + 534 x(26)#26 + 407 x(27)#27 + 377 x(28)#28 + 114 x(29)#29 + 111 x(30)#30
     + 73 x(31)#31 + 184 x(32)#32 + 456 x(33)#33 + 546 x(34)#34 + 45 x(35)#35
     + 119 x(36)#36 + 907 x(37)#37 + 839 x(38)#38 + 446 x(39)#39 + 574 x(40)#40
     + 264 x(41)#41 + 327 x(42)#42 + 186 x(43)#43 + 197 x(44)#44 + 732 x(45)#45
     + 643 x(46)#46 + 31 x(47)#47 + 999 x(48)#48 + 636 x(49)#49 + 69 x(50)#50
     + 767 x(51)#51 + 786 x(52)#52 + 223 x(53)#53 + 497 x(54)#54 + 115 x(55)#55
     + 127 x(56)#56 + 792 x(57)#57 + 9 x(58)#58 + 561 x(59)#59 + 17 x(60)#60
     + 965 x(61)#61 + 275 x(62)#62 + 878 x(63)#63 + 464 x(64)#64 + 841 x(65)#65
     + 331 x(66)#66 + 505 x(67)#67 + 739 x(68)#68 + 10 x(69)#69 + 176 x(70)#70
     + 980 x(71)#71 + 407 x(72)#72 + 793 x(73)#73 + 344 x(74)#74 + 468 x(75)#75
     + 9 x(76)#76 + 676 x(77)#77 + 361 x(78)#78 + 371 x(79)#79 + 429 x(80)#80
     + 542 x(81)#81 + 799 x(82)#82 + 850 x(83)#83 + 365 x(84)#84 + 649 x(85)#85
     + 799 x(86)#86 + 520 x(87)#87 + 712 x(88)#88 + 609 x(89)#89 + 269 x(90)#90
     + 625 x(91)#91 + 352 x(92)#92 + 280 x(93)#93 + 10 x(94)#94 + 727 x(95)#95
     + 138 x(96)#96 + 777 x(97)#97 + 186 x(98)#98 + 745 x(99)#99
     + 747 x(100)#100 + 29 x(101)#101 + 185 x(102)#102 + 470 x(103)#103
     + 31 x(104)#104 + 335 x(105)#105 + 420 x(106)#106 + 831 x(107)#107
     + 985 x(108)#108 + 344 x(109)#109 + 975 x(110)#110 + 520 x(111)#111
     + 585 x(112)#112 + 57 x(113)#113 + 889 x(114)#114 + 85 x(115)#115
     + 793 x(116)#116 + 909 x(117)#117 + 409 x(118)#118 + 796 x(119)#119
     + 558 x(120)#120 + 490 x(121)#121 + 720 x(122)#122 + 246 x(123)#123
     + 895 x(124)#124 + 563 x(125)#125 + 339 x(126)#126 + 357 x(127)#127
     + 734 x(128)#128 + 502 x(129)#129 + 663 x(130)#130 + 157 x(131)#131
     + 449 x(132)#132 + 358 x(133)#133 + 91 x(134)#134 + 298 x(135)#135
     + 56 x(136)#136 + 153 x(137)#137 + 827 x(138)#138 + 221 x(139)#139
     + 636 x(140)#140 + 823 x(141)#141 + 179 x(142)#142 + 550 x(143)#143
     + 572 x(144)#144 + 279 x(145)#145 + 678 x(146)#146 + 544 x(147)#147
     + 295 x(148)#148 + 361 x(149)#149 + 377 x(150)#150 + 583 x(151)#151
     + 304 x(152)#152 + 939 x(153)#153 + 266 x(154)#154 + 970 x(155)#155
     + 156 x(156)#156 + 717 x(157)#157 + 704 x(158)#158 + 248 x(159)#159
     + 933 x(160)#160 + 507 x(161)#161 + 577 x(162)#162 + 29 x(163)#163
     + 524 x(164)#164 + 789 x(165)#165 + 766 x(166)#166 + 361 x(167)#167
     + 385 x(168)#168 + 296 x(169)#169 + 871 x(170)#170 + 476 x(171)#171
     + 546 x(172)#172 + 602 x(173)#173 + 853 x(174)#174 + 580 x(175)#175
     + 717 x(176)#176 + 856 x(177)#177 + 228 x(178)#178 + 194 x(179)#179
     + 469 x(180)#180 + 232 x(181)#181 + 861 x(182)#182 + 496 x(183)#183
     + 510 x(184)#184 + 245 x(185)#185 + 845 x(186)#186 + 163 x(187)#187
     + 25 x(188)#188 + 582 x(189)#189 + 887 x(190)#190 + 856 x(191)#191
     + 174 x(192)#192 + 829 x(193)#193 + 777 x(194)#194 + 936 x(195)#195
     + 189 x(196)#196 + 513 x(197)#197 + 193 x(198)#198 + 763 x(199)#199
     + 538 x(200)#200 + 59 x(201)#201 + 582 x(202)#202 + 262 x(203)#203
     + 836 x(204)#204 + 104 x(205)#205 + 759 x(206)#206 + 172 x(207)#207
     + 500 x(208)#208 + 987 x(209)#209 + 404 x(210)#210 + 293 x(211)#211
     + 685 x(212)#212 + 215 x(213)#213 + 438 x(214)#214 + 129 x(215)#215
     + 728 x(216)#216 + 551 x(217)#217 + 887 x(218)#218 + 787 x(219)#219
     + 925 x(220)#220 + 631 x(221)#221 + 320 x(222)#222 + 846 x(223)#223
     + 49 x(224)#224 + 295 x(225)#225 + 607 x(226)#226 + 120 x(227)#227
     + 730 x(228)#228 + 426 x(229)#229 + 773 x(230)#230 + 816 x(231)#231
     + 795 x(232)#232 + 826 x(233)#233 + 25 x(234)#234 + 601 x(235)#235
     + 1000 x(236)#236 + 849 x(237)#237 + 767 x(238)#238 + 860 x(239)#239
     + 161 x(240)#240 + 888 x(241)#241 + 261 x(242)#242 + 760 x(243)#243
     + 382 x(244)#244 + 872 x(245)#245 + 563 x(246)#246 + 281 x(247)#247
     + 662 x(248)#248 + 714 x(249)#249 <= 30997
 c4: 552 x(0)#0 + 928 x(1)#1 + 352 x(2)#2 + 271 x(3)#3 + 621 x(4)#4
     + 392 x(5)#5 + 374 x(6)#6 + 278 x(7)#7 + 138 x(8)#8 + 644 x(9)#9
     + 277 x(10)#10 + 57 x(11)#11 + 250 x(12)#12 + 576 x(13)#13 + 821 x(14)#14
     + 534 x(15)#15 + 527 x(16)#16 + 879 x(17)#17 + 72 x(18)#18 + 366 x(19)#19
     + 629 x(20)#20 + 158 x(21)#21 + 324 x(22)#22 + 792 x(23)#23 + 424 x(24)#24
     + 802 x(25)#25 + 608 x(26)#26 + 699 x(27)#27 + 37 x(28)#28 + 31 x(29)#29
     + 241 x(30)#30 + 909 x(31)#31 + 570 x(32)#32 + 731 x(33)#33 + 642 x(34)#34
     + 311 x(35)#35 + 444 x(36)#36 + 879 x(37)#37 + 653 x(38)#38 + 940 x(39)#39
     + 11 x(40)#40 + 931 x(41)#41 + 260 x(42)#42 + 101 x(43)#43 + 15 x(44)#44
     + 843 x(45)#45 + 270 x(46)#46 + 598 x(47)#47 + 914 x(48)#48 + 534 x(49)#49
     + 155 x(50)#50 + 47 x(51)#51 + 747 x(52)#52 + 552 x(53)#53 + 837 x(54)#54
     + 786 x(55)#55 + 245 x(56)#56 + 293 x(57)#57 + 948 x(58)#58 + 591 x(59)#59
     + 844 x(60)#60 + 364 x(61)#61 + 80 x(62)#62 + 865 x(63)#63 + 395 x(64)#64
     + 5 x(65)#65 + 436 x(66)#66 + 494 x(67)#67 + 165 x(68)#68 + 130 x(69)#69
     + 543 x(70)#70 + 457 x(71)#71 + 58 x(72)#72 + 231 x(73)#73 + 417 x(74)#74
     + 423 x(75)#75 + 877 x(76)#76 + 625 x(77)#77 + 488 x(78)#78 + 755 x(79)#79
     + 272 x(80)#80 + 671 x(81)#81 + 193 x(82)#82 + 682 x(83)#83 + 167 x(84)#84
     + 812 x(85)#85 + 5 x(86)#86 + 207 x(87)#87 + 340 x(88)#88 + 927 x(89)#89
     + 824 x(90)#90 + 380 x(91)#91 + 79 x(92)#92 + 545 x(93)#93 + 483 x(94)#94
     + 93 x(95)#95 + 979 x(96)#96 + 844 x(97)#97 + 444 x(98)#98 + 196 x(99)#99
     + 506 x(100)#100 + 19 x(101)#101 + 459 x(102)#102 + 323 x(103)#103
     + 910 x(104)#104 + 686 x(105)#105 + 860 x(106)#106 + 54 x(107)#107
     + 452 x(108)#108 + 138 x(109)#109 + 738 x(110)#110 + 292 x(111)#111
     + 185 x(112)#112 + 218 x(113)#113 + 666 x(114)#114 + 770 x(115)#115
     + 281 x(116)#116 + 72 x(117)#117 + 51 x(118)#118 + 406 x(119)#119
     + 356 x(120)#120 + 994 x(121)#121 + 966 x(122)#122 + 67 x(123)#123
     + 719 x(124)#124 + 812 x(125)#125 + 442 x(126)#126 + 889 x(127)#127
     + 540 x(128)#128 + 9 x(129)#129 + 452 x(130)#130 + 730 x(131)#131
     + 529 x(132)#132 + 89 x(133)#133 + 737 x(134)#134 + 821 x(135)#135
     + 696 x(136)#136 + 265 x(137)#137 + 467 x(138)#138 + 427 x(139)#139
     + 76 x(140)#140 + 110 x(141)#141 + 508 x(142)#142 + 514 x(143)#143
     + 734 x(144)#144 + 695 x(145)#145 + 662 x(146)#146 + 668 x(147)#147
     + 899 x(148)#148 + 821 x(149)#149 + 423 x(150)#150 + 823 x(151)#151
     + 134 x(152)#152 + 140 x(153)#153 + 941 x(154)#154 + 283 x(155)#155
     + 852 x(156)#156 + 846 x(157)#157 + 405 x(158)#158 + 566 x(159)#159
     + 556 x(160)#160 + 316 x(161)#161 + 315 x(162)#162 + 575 x(163)#163
     + 19 x(164)#164 + 628 x(165)#165 + 633 x(166)#166 + 13 x(167)#167
     + 808 x(168)#168 + 529 x(169)#169 + 192 x(170)#170 + 909 x(171)#171
     + 660 x(172)#172 + 477 x(173)#173 + 207 x(174)#174 + 276 x(175)#175
     + 567 x(176)#176 + 982 x(177)#177 + 806 x(178)#178 + 210 x(179)#179
     + 707 x(180)#180 + 916 x(181)#181 + 721 x(182)#182 + 147 x(183)#183
     + 82 x(184)#184 + 374 x(185)#185 + 621 x(186)#186 + 829 x(187)#187
     + 982 x(188)#188 + 72 x(189)#189 + 45 x(190)#190 + 756 x(191)#191
     + 4 x(192)#192 + 709 x(193)#193 + 729 x(194)#194 + 612 x(195)#195
     + 567 x(196)#196 + 667 x(197)#197 + 395 x(198)#198 + 979 x(199)#199
     + 134 x(200)#200 + 164 x(201)#201 + 593 x(202)#202 + 268 x(203)#203
     + 997 x(204)#204 + 150 x(205)#205 + 697 x(206)#206 + 987 x(207)#207
     + 524 x(208)#208 + 319 x(209)#209 + 329 x(210)#210 + 860 x(211)#211
     + 738 x(212)#212 + 491 x(213)#213 + 769 x(214)#214 + 154 x(215)#215
     + 871 x(216)#216 + 528 x(217)#217 + 183 x(218)#218 + 208 x(219)#219
     + 260 x(220)#220 + 888 x(221)#221 + 416 x(222)#222 + 873 x(223)#223
     + 659 x(224)#224 + 188 x(225)#225 + 159 x(226)#226 + 889 x(227)#227
     + 182 x(228)#228 + 680 x(229)#229 + 423 x(230)#230 + 119 x(231)#231
     + 825 x(232)#232 + 451 x(233)#233 + 1000 x(234)#234 + 441 x(235)#235
     + 294 x(236)#236 + 19 x(237)#237 + 68 x(238)#238 + 70 x(239)#239
     + 476 x(240)#240 + 538 x(241)#241 + 999 x(242)#242 + 249 x(243)#243
     + 207 x(244)#244 + 659 x(245)#245 + 848 x(246)#246 + 99 x(247)#247
     + 134 x(248)#248 + 330 x(249)#249 <= 30350
 c5: 177 x(0)#0 + 557 x(1)#1 + 647 x(2)#2 + 207 x(3)#3 + 568 x(4)#4
     + 119 x(5)#5 + 490 x(6)#6 + 185 x(7)#7 + 443 x(8)#8 + 620 x(9)#9
     + 520 x(10)#10 + 882 x(11)#11 + 342 x(12)#12 + 386 x(13)#13 + 298 x(14)#14
     + 262 x(15)#15 + 885 x(16)#16 + 763 x(17)#17 + 873 x(18)#18 + 714 x(19)#19
     + 791 x(20)#20 + 965 x(21)#21 + 560 x(22)#22 + 831 x(23)#23 + 424 x(24)#24
     + 409 x(25)#25 + 443 x(26)#26 + 508 x(27)#27 + 925 x(28)#28 + 326 x(29)#29
     + 767 x(30)#30 + 332 x(31)#31 + 925 x(32)#32 + 411 x(33)#33 + 823 x(34)#34
     + 845 x(35)#35 + 468 x(36)#36 + 246 x(37)#37 + 33 x(38)#38 + 884 x(39)#39
     + 959 x(40)#40 + 423 x(41)#41 + 813 x(42)#42 + 232 x(43)#43 + 463 x(44)#44
     + 212 x(45)#45 + 464 x(46)#46 + 829 x(47)#47 + 718 x(48)#48 + 507 x(49)#49
     + 700 x(50)#50 + 77 x(51)#51 + 98 x(52)#52 + 737 x(53)#53 + 408 x(54)#54
     + 982 x(55)#55 + 748 x(56)#56 + 309 x(57)#57 + 654 x(58)#58 + 334 x(59)#59
     + 888 x(60)#60 + 428 x(61)#61 + 233 x(62)#62 + 678 x(63)#63 + 586 x(64)#64
     + 778 x(65)#65 + 811 x(66)#66 + 666 x(67)#67 + 77 x(68)#68 + 21 x(69)#69
     + 784 x(70)#70 + 668 x(71)#71 + 922 x(72)#72 + 618 x(73)#73 + 476 x(74)#74
     + 667 x(75)#75 + 786 x(76)#76 + 116 x(77)#77 + 501 x(78)#78 + 744 x(79)#79
     + 812 x(80)#80 + 112 x(81)#81 + 855 x(82)#82 + 922 x(83)#83 + 374 x(84)#84
     + 393 x(85)#85 + 684 x(86)#86 + 366 x(87)#87 + 260 x(88)#88 + 317 x(89)#89
     + 160 x(90)#90 + 176 x(91)#91 + 849 x(92)#92 + 84 x(93)#93 + 189 x(94)#94
     + 872 x(95)#95 + 624 x(96)#96 + 995 x(97)#97 + 980 x(98)#98 + 973 x(99)#99
     + 969 x(100)#100 + 997 x(101)#101 + 38 x(102)#102 + 211 x(103)#103
     + 84 x(104)#104 + 388 x(105)#105 + 806 x(106)#106 + 796 x(107)#107
     + 999 x(108)#108 + 170 x(109)#109 + 78 x(110)#110 + 423 x(111)#111
     + 552 x(112)#112 + 883 x(113)#113 + 68 x(114)#114 + 42 x(115)#115
     + 457 x(116)#116 + 30 x(117)#117 + 11 x(118)#118 + 489 x(119)#119
     + 247 x(120)#120 + 735 x(121)#121 + 696 x(122)#122 + 284 x(123)#123
     + 608 x(124)#124 + 454 x(125)#125 + 555 x(126)#126 + 546 x(127)#127
     + 879 x(128)#128 + 638 x(129)#129 + 418 x(130)#130 + 48 x(131)#131
     + 482 x(132)#132 + 813 x(133)#133 + 52 x(134)#134 + 544 x(135)#135
     + 574 x(136)#136 + 853 x(137)#137 + 210 x(138)#138 + 505 x(139)#139
     + 783 x(140)#140 + 927 x(141)#141 + 902 x(142)#142 + 178 x(143)#143
     + 929 x(144)#144 + 363 x(145)#145 + 177 x(146)#146 + 974 x(147)#147
     + 645 x(148)#148 + 527 x(149)#149 + 581 x(150)#150 + 446 x(151)#151
     + 837 x(152)#152 + 733 x(153)#153 + 647 x(154)#154 + 417 x(155)#155
     + 654 x(156)#156 + 555 x(157)#157 + 819 x(158)#158 + 388 x(159)#159
     + 424 x(160)#160 + 913 x(161)#161 + 20 x(162)#162 + 146 x(163)#163
     + 638 x(164)#164 + 589 x(165)#165 + 882 x(166)#166 + 826 x(167)#167
     + 54 x(168)#168 + 302 x(169)#169 + 746 x(170)#170 + 659 x(171)#171
     + 432 x(172)#172 + 26 x(173)#173 + 939 x(174)#174 + 376 x(175)#175
     + 703 x(176)#176 + 960 x(177)#177 + 438 x(178)#178 + 228 x(179)#179
     + 921 x(180)#180 + 549 x(181)#181 + 548 x(182)#182 + 156 x(183)#183
     + 230 x(184)#184 + 719 x(185)#185 + 973 x(186)#186 + 543 x(187)#187
     + 930 x(188)#188 + 883 x(189)#189 + 892 x(190)#190 + 214 x(191)#191
     + 474 x(192)#192 + 199 x(193)#193 + 331 x(194)#194 + 267 x(195)#195
     + 615 x(196)#196 + 766 x(197)#197 + 79 x(198)#198 + 811 x(199)#199
     + 262 x(200)#200 + 191 x(201)#201 + 579 x(202)#202 + 330 x(203)#203
     + 772 x(204)#204 + 124 x(205)#205 + 350 x(206)#206 + 747 x(207)#207
     + 706 x(208)#208 + 251 x(209)#209 + 221 x(210)#210 + 757 x(211)#211
     + 957 x(212)#212 + 311 x(213)#213 + 94 x(214)#214 + 204 x(215)#215
     + 466 x(216)#216 + 964 x(217)#217 + 817 x(218)#218 + 69 x(219)#219
     + 67 x(220)#220 + 485 x(221)#221 + 255 x(222)#222 + 967 x(223)#223
     + 548 x(224)#224 + 37 x(225)#225 + 79 x(226)#226 + 618 x(227)#227
     + 581 x(228)#228 + 335 x(229)#229 + 924 x(230)#230 + 305 x(231)#231
     + 237 x(232)#232 + 606 x(233)#233 + 528 x(234)#234 + 567 x(235)#235
     + 778 x(236)#236 + 196 x(237)#237 + 399 x(238)#238 + 914 x(239)#239
     + 147 x(240)#240 + 212 x(241)#241 + 540 x(242)#242 + 793 x(243)#243
     + 881 x(244)#244 + 278 x(245)#245 + 900 x(246)#246 + 695 x(247)#247
     + 889 x(248)#248 + 141 x(249)#249 <= 32889
Bounds
 0 <= x(0)#0 <= 1
 0 <= x(1)#1 <= 1
 0 <= x(2)#2 <= 1
 0 <= x(3)#3 <= 1
 0 <= x(4)#4 <= 1
 0 <= x(5)#5 <= 1
 0 <= x(6)#6 <= 1
 0 <= x(7)#7 <= 1
 0 <= x(8)#8 <= 1
 0 <= x(9)#9 <= 1
 0 <= x(10)#10 <= 1
 0 <= x(11)#11 <= 1
 0 <= x(12)#12 <= 1
 0 <= x(13)#13 <= 1
 0 <= x(14)#14 <= 1
 0 <= x(15)#15 <= 1
 0 <= x(16)#16 <= 1
 0 <= x(17)#17 <= 1
 0 <= x(18)#18 <= 1
 0 <= x(19)#19 <= 1
 0 <= x(20)#20 <= 1
 0 <= x(21)#21 <= 1
 0 <= x(22)#22 <= 1
 0 <= x(23)#23 <= 1
 0 <= x(24)#24 <= 1
 0 <= x(25)#25 <= 1
 0 <= x(26)#26 <= 1
 0 <= x(27)#27 <= 1
 0 <= x(28)#28 <= 1
 0 <= x(29)#29 <= 1
 0 <= x(30)#30 <= 1
 0 <= x(31)#31 <= 1
 0 <= x(32)#32 <= 1
 0 <= x(33)#33 <= 1
 0 <= x(34)#34 <= 1
 0 <= x(35)#35 <= 1
 0 <= x(36)#36 <= 1
 0 <= x(37)#37 <= 1
 0 <= x(38)#38 <= 1
 0 <= x(39)#39 <= 1
 0 <= x(40)#40 <= 1
 0 <= x(41)#41 <= 1
 0 <= x(42)#42 <= 1
 0 <= x(43)#43 <= 1
 0 <= x(44)#44 <= 1
 0 <= x(45)#45 <= 1
 0 <= x(46)#46 <= 1
 0 <= x(47)#47 <= 1
 0 <= x(48)#48 <= 1
 0 <= x(49)#49 <= 1
 0 <= x(50)#50 <= 1
 0 <= x(51)#51 <= 1
 0 <= x(52)#52 <= 1
 0 <= x(53)#53 <= 1
 0 <= x(54)#54 <= 1
 0 <= x(55)#55 <= 1
 0 <= x(56)#56 <= 1
 0 <= x(57)#57 <= 1
 0 <= x(58)#58 <= 1
 0 <= x(59)#59 <= 1
 0 <= x(60)#60 <= 1
 0 <= x(61)#61 <= 1
 0 <= x(62)#62 <= 1
 0 <= x(63)#63 <= 1
 0 <= x(64)#64 <= 1
 0 <= x(65)#65 <= 1
 0 <= x(66)#66 <= 1
 0 <= x(67)#67 <= 1
 0 <= x(68)#68 <= 1
 0 <= x(69)#69 <= 1
 0 <= x(70)#70 <= 1
 0 <= x(71)#71 <= 1
 0 <= x(72)#72 <= 1
 0 <= x(73)#73 <= 1
 0 <= x(74)#74 <= 1
 0 <= x(75)#75 <= 1
 0 <= x(76)#76 <= 1
 0 <= x(77)#77 <= 1
 0 <= x(78)#78 <= 1
 0 <= x(79)#79 <= 1
 0 <= x(80)#80 <= 1
 0 <= x(81)#81 <= 1
 0 <= x(82)#82 <= 1
 0 <= x(83)#83 <= 1
 0 <= x(84)#84 <= 1
 0 <= x(85)#85 <= 1
 0 <= x(86)#86 <= 1
 0 <= x(87)#87 <= 1
 0 <= x(88)#88 <= 1
 0 <= x(89)#89 <= 1
 0 <= x(90)#90 <= 1
 0 <= x(91)#91 <= 1
 0 <= x(92)#92 <= 1
 0 <= x(93)#93 <= 1
 0 <= x(94)#94 <= 1
 0 <= x(95)#95 <= 1
 0 <= x(96)#96 <= 1
 0 <= x(97)#97 <= 1
 0 <= x(98)#98 <= 1
 0 <= x(99)#99 <= 1
 0 <= x(100)#100 <= 1
 0 <= x(101)#101 <= 1
 0 <= x(102)#102 <= 1
 0 <= x(103)#103 <= 1
 0 <= x(104)#104 <= 1
 0 <= x(105)#105 <= 1
 0 <= x(106)#106 <= 1
 0 <= x(107)#107 <= 1
 0 <= x(108)#108 <= 1
 0 <= x(109)#109 <= 1
 0 <= x(110)#110 <= 1
 0 <= x(111)#111 <= 1
 0 <= x(112)#112 <= 1
 0 <= x(113)#113 <= 1
 0 <= x(114)#114 <= 1
 0 <= x(115)#115 <= 1
 0 <= x(116)#116 <= 1
 0 <= x(117)#117 <= 1
 0 <= x(118)#118 <= 1
 0 <= x(119)#119 <= 1
 0 <= x(120)#120 <= 1
 0 <= x(121)#121 <= 1
 0 <= x(122)#122 <= 1
 0 <= x(123)#123 <= 1
 0 <= x(124)#124 <= 1
 0 <= x(125)#125 <= 1
 0 <= x(126)#126 <= 1
 0 <= x(127)#127 <= 1
 0 <= x(128)#128 <= 1
 0 <= x(129)#129 <= 1
 0 <= x(130)#130 <= 1
 0 <= x(131)#131 <= 1
 0 <= x(132)#132 <= 1
 0 <= x(133)#133 <= 1
 0 <= x(134)#134 <= 1
 0 <= x(135)#135 <= 1
 0 <= x(136)#136 <= 1
 0 <= x(137)#137 <= 1
 0 <= x(138)#138 <= 1
 0 <= x(139)#139 <= 1
 0 <= x(140)#140 <= 1
 0 <= x(141)#141 <= 1
 0 <= x(142)#142 <= 1
 0 <= x(143)#143 <= 1
 0 <= x(144)#144 <= 1
 0 <= x(145)#145 <= 1
 0 <= x(146)#146 <= 1
 0 <= x(147)#147 <= 1
 0 <= x(148)#148 <= 1
 0 <= x(149)#149 <= 1
 0 <= x(150)#150 <= 1
 0 <= x(151)#151 <= 1
 0 <= x(152)#152 <= 1
 0 <= x(153)#153 <= 1
 0 <= x(154)#154 <= 1
 0 <= x(155)#155 <= 1
 0 <= x(156)#156 <= 1
 0 <= x(157)#157 <= 1
 0 <= x(158)#158 <= 1
 0 <= x(159)#159 <= 1
 0 <= x(160)#160 <= 1
 0 <= x(161)#161 <= 1
 0 <= x(162)#162 <= 1
 0 <= x(163)#163 <= 1
 0 <= x(164)#164 <= 1
 0 <= x(165)#165 <= 1
 0 <= x(166)#166 <= 1
 0 <= x(167)#167 <= 1
 0 <= x(168)#168 <= 1
 0 <= x(169)#169 <= 1
 0 <= x(170)#170 <= 1
 0 <= x(171)#171 <= 1
 0 <= x(172)#172 <= 1
 0 <= x(173)#173 <= 1
 0 <= x(174)#174 <= 1
 0 <= x(175)#175 <= 1
 0 <= x(176)#176 <= 1
 0 <= x(177)#177 <= 1
 0 <= x(178)#178 <= 1
 0 <= x(179)#179 <= 1
 0 <= x(180)#180 <= 1
 0 <= x(181)#181 <= 1
 0 <= x(182)#182 <= 1
 0 <= x(183)#183 <= 1
 0 <= x(184)#184 <= 1
 0 <= x(185)#185 <= 1
 0 <= x(186)#186 <= 1
 0 <= x(187)#187 <= 1
 0 <= x(188)#188 <= 1
 0 <= x(189)#189 <= 1
 0 <= x(190)#190 <= 1
 0 <= x(191)#191 <= 1
 0 <= x(192)#192 <= 1
 0 <= x(193)#193 <= 1
 0 <= x(194)#194 <= 1
 0 <= x(195)#195 <= 1
 0 <= x(196)#196 <= 1
 0 <= x(197)#197 <= 1
 0 <= x(198)#198 <= 1
 0 <= x(199)#199 <= 1
 0 <= x(200)#200 <= 1
 0 <= x(201)#201 <= 1
 0 <= x(202)#202 <= 1
 0 <= x(203)#203 <= 1
 0 <= x(204)#204 <= 1
 0 <= x(205)#205 <= 1
 0 <= x(206)#206 <= 1
 0 <= x(207)#207 <= 1
 0 <= x(208)#208 <= 1
 0 <= x(209)#209 <= 1
 0 <= x(210)#210 <= 1
 0 <= x(211)#211 <= 1
 0 <= x(212)#212 <= 1
 0 <= x(213)#213 <= 1
 0 <= x(214)#214 <= 1
 0 <= x(215)#215 <= 1
 0 <= x(216)#216 <= 1
 0 <= x(217)#217 <= 1
 0 <= x(218)#218 <= 1
 0 <= x(219)#219 <= 1
 0 <= x(220)#220 <= 1
 0 <= x(221)#221 <= 1
 0 <= x(222)#222 <= 1
 0 <= x(223)#223 <= 1
 0 <= x(224)#224 <= 1
 0 <= x(225)#225 <= 1
 0 <= x(226)#226 <= 1
 0 <= x(227)#227 <= 1
 0 <= x(228)#228 <= 1
 0 <= x(229)#229 <= 1
 0 <= x(230)#230 <= 1
 0 <= x(231)#231 <= 1
 0 <= x(232)#232 <= 1
 0 <= x(233)#233 <= 1
 0 <= x(234)#234 <= 1
 0 <= x(235)#235 <= 1
 0 <= x(236)#236 <= 1
 0 <= x(237)#237 <= 1
 0 <= x(238)#238 <= 1
 0 <= x(239)#239 <= 1
 0 <= x(240)#240 <= 1
 0 <= x(241)#241 <= 1
 0 <= x(242)#242 <= 1
 0 <= x(243)#243 <= 1
 0 <= x(244)#244 <= 1
 0 <= x(245)#245 <= 1
 0 <= x(246)#246 <= 1
 0 <= x(247)#247 <= 1
 0 <= x(248)#248 <= 1
 0 <= x(249)#249 <= 1
Generals
 x(0)#0  x(1)#1  x(2)#2  x(3)#3  x(4)#4  x(5)#5  x(6)#6  x(7)#7  x(8)#8 
 x(9)#9  x(10)#10  x(11)#11  x(12)#12  x(13)#13  x(14)#14  x(15)#15  x(16)#16 
 x(17)#17  x(18)#18  x(19)#19  x(20)#20  x(21)#21  x(22)#22  x(23)#23 
 x(24)#24  x(25)#25  x(26)#26  x(27)#27  x(28)#28  x(29)#29  x(30)#30 
 x(31)#31  x(32)#32  x(33)#33  x(34)#34  x(35)#35  x(36)#36  x(37)#37 
 x(38)#38  x(39)#39  x(40)#40  x(41)#41  x(42)#42  x(43)#43  x(44)#44 
 x(45)#45  x(46)#46  x(47)#47  x(48)#48  x(49)#49  x(50)#50  x(51)#51 
 x(52)#52  x(53)#53  x(54)#54  x(55)#55  x(56)#56  x(57)#57  x(58)#58 
 x(59)#59  x(60)#60  x(61)#61  x(62)#62  x(63)#63  x(64)#64  x(65)#65 
 x(66)#66  x(67)#67  x(68)#68  x(69)#69  x(70)#70  x(71)#71  x(72)#72 
 x(73)#73  x(74)#74  x(75)#75  x(76)#76  x(77)#77  x(78)#78  x(79)#79 
 x(80)#80  x(81)#81  x(82)#82  x(83)#83  x(84)#84  x(85)#85  x(86)#86 
 x(87)#87  x(88)#88  x(89)#89  x(90)#90  x(91)#91  x(92)#92  x(93)#93 
 x(94)#94  x(95)#95  x(96)#96  x(97)#97  x(98)#98  x(99)#99  x(100)#100 
 x(101)#101  x(102)#102  x(103)#103  x(104)#104  x(105)#105  x(106)#106 
 x(107)#107  x(108)#108  x(109)#109  x(110)#110  x(111)#111  x(112)#112 
 x(113)#113  x(114)#114  x(115)#115  x(116)#116  x(117)#117  x(118)#118 
 x(119)#119  x(120)#120  x(121)#121  x(122)#122  x(123)#123  x(124)#124 
 x(125)#125  x(126)#126  x(127)#127  x(128)#128  x(129)#129  x(130)#130 
 x(131)#131  x(132)#132  x(133)#133  x(134)#134  x(135)#135  x(136)#136 
 x(137)#137  x(138)#138  x(139)#139  x(140)#140  x(141)#141  x(142)#142 
 x(143)#143  x(144)#144  x(145)#145  x(146)#146  x(147)#147  x(148)#148 
 x(149)#149  x(150)#150  x(151)#151  x(152)#152  x(153)#153  x(154)#154 
 x(155)#155  x(156)#156  x(157)#157  x(158)#158  x(159)#159  x(160)#160 
 x(161)#161  x(162)#162  x(163)#163  x(164)#164  x(165)#165  x(166)#166 
 x(167)#167  x(168)#168  x(169)#169  x(170)#170  x(171)#171  x(172)#172 
 x(173)#173  x(174)#174  x(175)#175  x(176)#176  x(177)#177  x(178)#178 
 x(179)#179  x(180)#180  x(181)#181  x(182)#182  x(183)#183  x(184)#184 
 x(185)#185  x(186)#186  x(187)#187  x(188)#188  x(189)#189  x(190)#190 
 x(191)#191  x(192)#192  x(193)#193  x(194)#194  x(195)#195  x(196)#196 
 x(197)#197  x(198)#198  x(199)#199  x(200)#200  x(201)#201  x(202)#202 
 x(203)#203  x(204)#204  x(205)#205  x(206)#206  x(207)#207  x(208)#208 
 x(209)#209  x(210)#210  x(211)#211  x(212)#212  x(213)#213  x(214)#214 
 x(215)#215  x(216)#216  x(217)#217  x(218)#218  x(219)#219  x(220)#220 
 x(221)#221  x(222)#222  x(223)#223  x(224)#224  x(225)#225  x(226)#226 
 x(227)#227  x(228)#228  x(229)#229  x(230)#230  x(231)#231  x(232)#232 
 x(233)#233  x(234)#234  x(235)#235  x(236)#236  x(237)#237  x(238)#238 
 x(239)#239  x(240)#240  x(241)#241  x(242)#242  x(243)#243  x(244)#244 
 x(245)#245  x(246)#246  x(247)#247  x(248)#248  x(249)#249 
End
